c Source: TUDataset MUTAG, graph #103
c Original: n=19, m=22
c Augmented: +8 edges, n=22 -> m=30, circuit_rank=9
c Augmented to satisfy Eulerian condition (no parallel edges)
p sp 22
e 7 8
e 8 9
e 17 18
e 3 4
e 13 14
e 4 5
e 9 10
e 6 11
e 8 17
e 5 6
e 3 12
e 1 2
e 10 11
e 1 14
e 15 16
e 6 7
e 17 19
e 2 3
e 11 12
e 13 15
e 10 16
e 12 13
e 3 20
e 12 20
e 6 21
e 11 21
e 8 22
e 17 22
e 10 13
e 18 19
